NAME : portgen-40-201
COMMENT : portgen N=40, seed=201
TYPE : TSP
DIMENSION : 40
EDGE_WEIGHT_TYPE : EUC_2D
NODE_COORD_SECTION
1 1217 712
2 676 2938
3 2003 2872
4 2 1991
5 1579 1192
6 1246 2795
7 1537 2221
8 414 1897
9 2411 530
10 2107 1294
11 878 2865
12 1871 1991
13 1062 114
14 3057 78
15 1874 3006
16 2990 576
17 2518 948
18 3035 170
19 2075 1862
20 582 959
21 525 1304
22 2116 963
23 547 357
24 1842 1236
25 490 2714
26 2449 2963
27 2762 3089
28 2827 641
29 1356 2891
30 3066 1833
31 797 1303
32 1409 620
33 667 3105
34 679 574
35 1673 57
36 54 1175
37 39 2555
38 2008 1077
39 103 1944
40 2326 421
